
  32    4
  10   10   10   10

   0   0   0   0   0   7 2 7 8 14 29 30 31 
   4   1   0   1   1   2 20 3 
   6   3   1   0  10   3 28 17 4 
  10   3   2   0   1   2 27 5 
   3   5   0   6   2   1 6 
   9   4   0   5   4   1 9 
  10   0   6   3   3   1 9 
  10   4   4   3   0   1 9 
   8   5   2   4   0   3 26 25 10 
   6   0   5   5   6   2 24 11 
   3   6   0   2   2   1 12 
   5   2   0   4   2   1 13 
   3   6   0   5   6   2 23 15 
   7   5   3   0   2   2 21 15 
   3   8   0   4   5   1 16 
   5   0   6   4   3   1 18 
   4   0   2   5   6   1 18 
   5   0   4   5   4   1 19 
   8   0   4   3   5   1 22 
   9   0   3   3   3   1 23 
   5   1   5   0   3   1 22 
   6   2   0   7   5   1 32
   3   6   6   0   6   1 32
   9   4   3   0   7   1 32
   6   5   2   0   7   1 32
   6   2   4   0   4   1 32
   3   0   6   4   3   1 32
   2   4   0   4   4   1 32
   6   0   3   2   3   1 32
   9   4   9   0   2   1 32
   3   4   0   5   3   1 32
   0   0   0   0   0   0 
